Optimal - objective value 362.00000000
      0 F                    362                       1
      2 m_1_0                  1                       0
      3 m_0_2                  1                       0
      5 m_0_3                  1                       0
      7 m_0_4                  1                       0
     10 m_5_0                  1                       0
     11 m_0_6                  1                       0
     13 m_0_7                  1                       0
     15 m_0_8                  1                       0
     17 m_0_9                  1                       0
     19 m_0_10                 1                       0
     21 m_0_11                 1                       0
     23 m_0_12                 1                       0
     25 m_0_13                 1                       0
     27 m_0_14                 1                       0
     29 m_0_15                 1                       0
     31 m_0_16                 1                       0
     33 m_0_17                 1                       0
     35 m_0_18                 1                       0
     37 m_0_19                 1                       0
     39 m_0_20                 1                       0
     41 m_0_21                 1                       0
     43 m_0_22                 1                       0
     45 m_0_23                 1                       0
     47 m_0_24                 1                       0
     49 m_0_25                 1                       0
     51 m_0_26                 1                       0
     53 m_0_27                 1                       0
     55 m_1_2                  1                       0
     57 m_1_3                  1                       0
     59 m_1_4                  1                       0
     62 m_5_1                  1                       0
     63 m_1_6                  1                       0
     65 m_1_7                  1                       0
     67 m_1_8                  1                       0
     69 m_1_9                  1                       0
     71 m_1_10                 1                       0
     73 m_1_11                 1                       0
     75 m_1_12                 1                       0
     77 m_1_13                 1                       0
     79 m_1_14                 1                       0
     81 m_1_15                 1                       0
     83 m_1_16                 1                       0
     85 m_1_17                 1                       0
     87 m_1_18                 1                       0
     89 m_1_19                 1                       0
     91 m_1_20                 1                       0
     93 m_1_21                 1                       0
     95 m_1_22                 1                       0
     97 m_1_23                 1                       0
     99 m_1_24                 1                       0
    101 m_1_25                 1                       0
    103 m_1_26                 1                       0
    105 m_1_27                 1                       0
    108 m_3_2                  1                       0
    109 m_2_4                  1                       0
    112 m_5_2                  1                       0
    113 m_2_6                  1                       0
    116 m_7_2                  1                       0
    117 m_2_8                  1                       0
    120 m_9_2                  1                       0
    121 m_2_10                 1                       0
    124 m_11_2                 1                       0
    125 m_2_12                 1                       0
    127 m_2_13                 1                       0
    129 m_2_14                 1                       0
    131 m_2_15                 1                       0
    134 m_16_2                 1                       0
    135 m_2_17                 1                       0
    137 m_2_18                 1                       0
    139 m_2_19                 1                       0
    141 m_2_20                 1                       0
    143 m_2_21                 1                       0
    145 m_2_22                 1                       0
    147 m_2_23                 1                       0
    149 m_2_24                 1                       0
    151 m_2_25                 1                       0
    153 m_2_26                 1                       0
    155 m_2_27                 1                       0
    157 m_3_4                  1                       0
    160 m_5_3                  1                       0
    161 m_3_6                  1                       0
    164 m_7_3                  1                       0
    165 m_3_8                  1                       0
    167 m_3_9                  1                       0
    169 m_3_10                 1                       0
    172 m_11_3                 1                       0
    173 m_3_12                 1                       0
    175 m_3_13                 1                       0
    177 m_3_14                 1                       0
    179 m_3_15                 1                       0
    181 m_3_16                 1                       0
    183 m_3_17                 1                       0
    185 m_3_18                 1                       0
    187 m_3_19                 1                       0
    189 m_3_20                 1                       0
    191 m_3_21                 1                       0
    193 m_3_22                 1                       0
    195 m_3_23                 1                       0
    197 m_3_24                 1                       0
    199 m_3_25                 1                       0
    201 m_3_26                 1                       0
    203 m_3_27                 1                       0
    206 m_5_4                  1                       0
    207 m_4_6                  1                       0
    210 m_7_4                  1                       0
    212 m_8_4                  1                       0
    214 m_9_4                  1                       0
    215 m_4_10                 1                       0
    218 m_11_4                 1                       0
    219 m_4_12                 1                       0
    222 m_13_4                 1                       0
    224 m_14_4                 1                       0
    225 m_4_15                 1                       0
    228 m_16_4                 1                       0
    229 m_4_17                 1                       0
    232 m_18_4                 1                       0
    233 m_4_19                 1                       0
    235 m_4_20                 1                       0
    237 m_4_21                 1                       0
    239 m_4_22                 1                       0
    241 m_4_23                 1                       0
    243 m_4_24                 1                       0
    245 m_4_25                 1                       0
    247 m_4_26                 1                       0
    249 m_4_27                 1                       0
    251 m_5_6                  1                       0
    253 m_5_7                  1                       0
    255 m_5_8                  1                       0
    257 m_5_9                  1                       0
    259 m_5_10                 1                       0
    261 m_5_11                 1                       0
    263 m_5_12                 1                       0
    265 m_5_13                 1                       0
    267 m_5_14                 1                       0
    269 m_5_15                 1                       0
    271 m_5_16                 1                       0
    273 m_5_17                 1                       0
    275 m_5_18                 1                       0
    277 m_5_19                 1                       0
    279 m_5_20                 1                       0
    281 m_5_21                 1                       0
    283 m_5_22                 1                       0
    285 m_5_23                 1                       0
    287 m_5_24                 1                       0
    289 m_5_25                 1                       0
    291 m_5_26                 1                       0
    293 m_5_27                 1                       0
    296 m_7_6                  1                       0
    298 m_8_6                  1                       0
    300 m_9_6                  1                       0
    302 m_10_6                 1                       0
    304 m_11_6                 1                       0
    305 m_6_12                 1                       0
    308 m_13_6                 1                       0
    310 m_14_6                 1                       0
    311 m_6_15                 1                       0
    314 m_16_6                 1                       0
    315 m_6_17                 1                       0
    318 m_18_6                 1                       0
    319 m_6_19                 1                       0
    321 m_6_20                 1                       0
    323 m_6_21                 1                       0
    325 m_6_22                 1                       0
    327 m_6_23                 1                       0
    329 m_6_24                 1                       0
    331 m_6_25                 1                       0
    333 m_6_26                 1                       0
    335 m_6_27                 1                       0
    337 m_7_8                  1                       0
    339 m_7_9                  1                       0
    341 m_7_10                 1                       0
    344 m_11_7                 1                       0
    345 m_7_12                 1                       0
    347 m_7_13                 1                       0
    349 m_7_14                 1                       0
    351 m_7_15                 1                       0
    353 m_7_16                 1                       0
    355 m_7_17                 1                       0
    357 m_7_18                 1                       0
    359 m_7_19                 1                       0
    361 m_7_20                 1                       0
    363 m_7_21                 1                       0
    365 m_7_22                 1                       0
    367 m_7_23                 1                       0
    369 m_7_24                 1                       0
    371 m_7_25                 1                       0
    373 m_7_26                 1                       0
    375 m_7_27                 1                       0
    378 m_9_8                  1                       0
    379 m_8_10                 1                       0
    382 m_11_8                 1                       0
    383 m_8_12                 1                       0
    385 m_8_13                 1                       0
    387 m_8_14                 1                       0
    389 m_8_15                 1                       0
    392 m_16_8                 1                       0
    393 m_8_17                 1                       0
    395 m_8_18                 1                       0
    397 m_8_19                 1                       0
    399 m_8_20                 1                       0
    401 m_8_21                 1                       0
    403 m_8_22                 1                       0
    405 m_8_23                 1                       0
    407 m_8_24                 1                       0
    409 m_8_25                 1                       0
    411 m_8_26                 1                       0
    413 m_8_27                 1                       0
    415 m_9_10                 1                       0
    418 m_11_9                 1                       0
    419 m_9_12                 1                       0
    421 m_9_13                 1                       0
    423 m_9_14                 1                       0
    425 m_9_15                 1                       0
    427 m_9_16                 1                       0
    429 m_9_17                 1                       0
    431 m_9_18                 1                       0
    433 m_9_19                 1                       0
    435 m_9_20                 1                       0
    437 m_9_21                 1                       0
    439 m_9_22                 1                       0
    441 m_9_23                 1                       0
    443 m_9_24                 1                       0
    445 m_9_25                 1                       0
    447 m_9_26                 1                       0
    449 m_9_27                 1                       0
    452 m_11_10                1                       0
    453 m_10_12                1                       0
    456 m_13_10                1                       0
    458 m_14_10                1                       0
    459 m_10_15                1                       0
    462 m_16_10                1                       0
    463 m_10_17                1                       0
    466 m_18_10                1                       0
    467 m_10_19                1                       0
    469 m_10_20                1                       0
    471 m_10_21                1                       0
    473 m_10_22                1                       0
    475 m_10_23                1                       0
    477 m_10_24                1                       0
    479 m_10_25                1                       0
    481 m_10_26                1                       0
    483 m_10_27                1                       0
    485 m_11_12                1                       0
    487 m_11_13                1                       0
    489 m_11_14                1                       0
    491 m_11_15                1                       0
    493 m_11_16                1                       0
    495 m_11_17                1                       0
    497 m_11_18                1                       0
    499 m_11_19                1                       0
    501 m_11_20                1                       0
    503 m_11_21                1                       0
    505 m_11_22                1                       0
    507 m_11_23                1                       0
    509 m_11_24                1                       0
    511 m_11_25                1                       0
    513 m_11_26                1                       0
    515 m_11_27                1                       0
    518 m_13_12                1                       0
    520 m_14_12                1                       0
    521 m_12_15                1                       0
    524 m_16_12                1                       0
    525 m_12_17                1                       0
    528 m_18_12                1                       0
    529 m_12_19                1                       0
    531 m_12_20                1                       0
    533 m_12_21                1                       0
    535 m_12_22                1                       0
    537 m_12_23                1                       0
    539 m_12_24                1                       0
    541 m_12_25                1                       0
    543 m_12_26                1                       0
    545 m_12_27                1                       0
    547 m_13_14                1                       0
    549 m_13_15                1                       0
    552 m_16_13                1                       0
    553 m_13_17                1                       0
    555 m_13_18                1                       0
    557 m_13_19                1                       0
    559 m_13_20                1                       0
    561 m_13_21                1                       0
    563 m_13_22                1                       0
    565 m_13_23                1                       0
    567 m_13_24                1                       0
    569 m_13_25                1                       0
    571 m_13_26                1                       0
    573 m_13_27                1                       0
    575 m_14_15                1                       0
    578 m_16_14                1                       0
    579 m_14_17                1                       0
    581 m_14_18                1                       0
    583 m_14_19                1                       0
    585 m_14_20                1                       0
    587 m_14_21                1                       0
    589 m_14_22                1                       0
    591 m_14_23                1                       0
    593 m_14_24                1                       0
    595 m_14_25                1                       0
    597 m_14_26                1                       0
    599 m_14_27                1                       0
    602 m_16_15                1                       0
    604 m_17_15                1                       0
    606 m_18_15                1                       0
    607 m_15_19                1                       0
    609 m_15_20                1                       0
    611 m_15_21                1                       0
    613 m_15_22                1                       0
    615 m_15_23                1                       0
    617 m_15_24                1                       0
    619 m_15_25                1                       0
    621 m_15_26                1                       0
    623 m_15_27                1                       0
    625 m_16_17                1                       0
    627 m_16_18                1                       0
    629 m_16_19                1                       0
    631 m_16_20                1                       0
    633 m_16_21                1                       0
    635 m_16_22                1                       0
    637 m_16_23                1                       0
    639 m_16_24                1                       0
    641 m_16_25                1                       0
    643 m_16_26                1                       0
    645 m_16_27                1                       0
    648 m_18_17                1                       0
    649 m_17_19                1                       0
    651 m_17_20                1                       0
    653 m_17_21                1                       0
    655 m_17_22                1                       0
    657 m_17_23                1                       0
    659 m_17_24                1                       0
    661 m_17_25                1                       0
    663 m_17_26                1                       0
    665 m_17_27                1                       0
    667 m_18_19                1                       0
    669 m_18_20                1                       0
    671 m_18_21                1                       0
    673 m_18_22                1                       0
    675 m_18_23                1                       0
    677 m_18_24                1                       0
    679 m_18_25                1                       0
    681 m_18_26                1                       0
    683 m_18_27                1                       0
    686 m_20_19                1                       0
    687 m_19_21                1                       0
    689 m_19_22                1                       0
    692 m_23_19                1                       0
    693 m_19_24                1                       0
    695 m_19_25                1                       0
    697 m_19_26                1                       0
    699 m_19_27                1                       0
    701 m_20_21                1                       0
    703 m_20_22                1                       0
    705 m_20_23                1                       0
    707 m_20_24                1                       0
    709 m_20_25                1                       0
    711 m_20_26                1                       0
    713 m_20_27                1                       0
    716 m_22_21                1                       0
    718 m_23_21                1                       0
    719 m_21_24                1                       0
    722 m_25_21                1                       0
    723 m_21_26                1                       0
    725 m_21_27                1                       0
    728 m_23_22                1                       0
    729 m_22_24                1                       0
    731 m_22_25                1                       0
    733 m_22_26                1                       0
    735 m_22_27                1                       0
    737 m_23_24                1                       0
    739 m_23_25                1                       0
    741 m_23_26                1                       0
    743 m_23_27                1                       0
    746 m_25_24                1                       0
    747 m_24_26                1                       0
    749 m_24_27                1                       0
    751 m_25_26                1                       0
    753 m_25_27                1                       0
    755 m_26_27                1                       0
    757 s_0                    3                       0
    758 m_0_0                  1                       0
    759 s_1                    2                       0
    760 m_1_1                  1                       0
    761 s_2                    9                       0
    762 m_2_2                  1                       0
    763 s_3                    6                       0
    764 m_3_3                  1                       0
    765 s_4                   14                       0
    766 m_4_4                  1                       0
    767 s_5                    1                       0
    768 m_5_5                  1                       0
    769 s_6                   16                       0
    770 m_6_6                  1                       0
    771 s_7                    5                       0
    772 m_7_7                  1                       0
    773 s_8                   10                       0
    774 m_8_8                  1                       0
    775 s_9                    7                       0
    776 m_9_9                  1                       0
    777 s_10                  15                       0
    778 m_10_10                1                       0
    779 s_11                   4                       0
    780 m_11_11                1                       0
    781 s_12                  17                       0
    782 m_12_12                1                       0
    783 s_13                  11                       0
    784 m_13_13                1                       0
    785 s_14                  12                       0
    786 m_14_14                1                       0
    787 s_15                  19                       0
    788 m_15_15                1                       0
    789 s_16                   8                       0
    790 m_16_16                1                       0
    791 s_17                  18                       0
    792 m_17_17                1                       0
    793 s_18                  13                       0
    794 m_18_18                1                       0
    795 s_19                  22                       0
    796 m_19_19                1                       0
    797 s_20                  20                       0
    798 m_20_20                1                       0
    799 s_21                  25                       0
    800 m_21_21                1                       0
    801 s_22                  23                       0
    802 m_22_22                1                       0
    803 s_23                  21                       0
    804 m_23_23                1                       0
    805 s_24                  26                       0
    806 m_24_24                1                       0
    807 s_25                  24                       0
    808 m_25_25                1                       0
    809 s_26                  27                       0
    810 m_26_26                1                       0
    811 s_27                  28                       0
    812 m_27_27                1                       0
    813 y_0_0                  1                       0
    814 y_1_0                  1                       0
    818 y_5_0                  1                       0
    842 y_1_1                  1                       0
    846 y_5_1                  1                       0
    869 y_0_2                  1                       0
    871 y_2_2                  1                       0
    876 y_7_2                  1                       0
    878 y_9_2                  1                       0
    885 y_16_2                 1                       0
    897 y_0_3                  1                       0
    900 y_3_3                  1                       0
    904 y_7_3                  1                       0
    908 y_11_3                 1                       0
    925 y_0_4                  1                       0
    929 y_4_4                  1                       0
    932 y_7_4                  1                       0
    938 y_13_4                 1                       0
    941 y_16_4                 1                       0
    943 y_18_4                 1                       0
    958 y_5_5                  1                       0
    981 y_0_6                  1                       0
    987 y_6_6                  1                       0
    988 y_7_6                  1                       0
    991 y_10_6                 1                       0
    994 y_13_6                 1                       0
    997 y_16_6                 1                       0
    999 y_18_6                 1                       0
   1009 y_0_7                  1                       0
   1010 y_1_7                  1                       0
   1016 y_7_7                  1                       0
   1020 y_11_7                 1                       0
   1037 y_0_8                  1                       0
   1039 y_2_8                  1                       0
   1044 y_7_8                  1                       0
   1045 y_8_8                  1                       0
   1046 y_9_8                  1                       0
   1053 y_16_8                 1                       0
   1065 y_0_9                  1                       0
   1068 y_3_9                  1                       0
   1072 y_7_9                  1                       0
   1074 y_9_9                  1                       0
   1076 y_11_9                 1                       0
   1093 y_0_10                 1                       0
   1097 y_4_10                 1                       0
   1100 y_7_10                 1                       0
   1103 y_10_10                1                       0
   1106 y_13_10                1                       0
   1109 y_16_10                1                       0
   1111 y_18_10                1                       0
   1121 y_0_11                 1                       0
   1122 y_1_11                 1                       0
   1126 y_5_11                 1                       0
   1132 y_11_11                1                       0
   1149 y_0_12                 1                       0
   1155 y_6_12                 1                       0
   1156 y_7_12                 1                       0
   1159 y_10_12                1                       0
   1161 y_12_12                1                       0
   1162 y_13_12                1                       0
   1165 y_16_12                1                       0
   1167 y_18_12                1                       0
   1177 y_0_13                 1                       0
   1184 y_7_13                 1                       0
   1185 y_8_13                 1                       0
   1186 y_9_13                 1                       0
   1190 y_13_13                1                       0
   1193 y_16_13                1                       0
   1205 y_0_14                 1                       0
   1212 y_7_14                 1                       0
   1214 y_9_14                 1                       0
   1218 y_13_14                1                       0
   1219 y_14_14                1                       0
   1221 y_16_14                1                       0
   1240 y_7_15                 1                       0
   1243 y_10_15                1                       0
   1246 y_13_15                1                       0
   1248 y_15_15                1                       0
   1249 y_16_15                1                       0
   1250 y_17_15                1                       0
   1251 y_18_15                1                       0
   1261 y_0_16                 1                       0
   1268 y_7_16                 1                       0
   1270 y_9_16                 1                       0
   1272 y_11_16                1                       0
   1277 y_16_16                1                       0
   1296 y_7_17                 1                       0
   1299 y_10_17                1                       0
   1301 y_12_17                1                       0
   1302 y_13_17                1                       0
   1305 y_16_17                1                       0
   1306 y_17_17                1                       0
   1307 y_18_17                1                       0
   1317 y_0_18                 1                       0
   1324 y_7_18                 1                       0
   1330 y_13_18                1                       0
   1331 y_14_18                1                       0
   1333 y_16_18                1                       0
   1335 y_18_18                1                       0
   1358 y_13_19                1                       0
   1360 y_15_19                1                       0
   1362 y_17_19                1                       0
   1363 y_18_19                1                       0
   1364 y_19_19                1                       0
   1368 y_23_19                1                       0
   1386 y_13_20                1                       0
   1388 y_15_20                1                       0
   1389 y_16_20                1                       0
   1390 y_17_20                1                       0
   1391 y_18_20                1                       0
   1393 y_20_20                1                       0
   1414 y_13_21                1                       0
   1418 y_17_21                1                       0
   1419 y_18_21                1                       0
   1422 y_21_21                1                       0
   1423 y_22_21                1                       0
   1426 y_25_21                1                       0
   1442 y_13_22                1                       0
   1446 y_17_22                1                       0
   1447 y_18_22                1                       0
   1448 y_19_22                1                       0
   1451 y_22_22                1                       0
   1452 y_23_22                1                       0
   1470 y_13_23                1                       0
   1472 y_15_23                1                       0
   1474 y_17_23                1                       0
   1475 y_18_23                1                       0
   1477 y_20_23                1                       0
   1480 y_23_23                1                       0
   1503 y_18_24                1                       0
   1506 y_21_24                1                       0
   1507 y_22_24                1                       0
   1509 y_24_24                1                       0
   1510 y_25_24                1                       0
   1526 y_13_25                1                       0
   1530 y_17_25                1                       0
   1531 y_18_25                1                       0
   1535 y_22_25                1                       0
   1536 y_23_25                1                       0
   1538 y_25_25                1                       0
   1563 y_22_26                1                       0
   1565 y_24_26                1                       0
   1566 y_25_26                1                       0
   1567 y_26_26                1                       0
   1594 y_25_27                1                       0
   1595 y_26_27                1                       0
   1596 y_27_27                1                       0
